n_machines = 10;
n_resources = 12;
n_jobs = 60;
horizon = 2820;
LB = 341;
n_jobs_per_resource = [5, 5, 5, 5, 5, 5, 5, 5, 5, 5, 5, 5];
duration = [87, 21, 82, 5, 60, 30, 74, 53, 74, 47, 16, 83, 93, 11, 35, 83, 28, 39, 27, 40, 12, 33, 23, 36, 7, 46, 52, 78, 45, 56, 92, 15, 61, 72, 57, 20, 33, 75, 42, 51, 1, 85, 52, 20, 43, 13, 26, 22, 46, 42, 54, 75, 29, 90, 93, 54, 22, 2, 68, 89]